c "384681.clq"
p edge 100 1344
e 1 17
e 1 18
e 1 19
e 1 20
e 1 24
e 1 25
e 1 26
e 1 28
e 1 31
e 1 34
e 1 35
e 1 37
e 1 44
e 1 52
e 1 60
e 1 62
e 1 66
e 1 69
e 1 74
e 1 79
e 1 89
e 1 91
e 1 98
e 2 17
e 2 18
e 2 19
e 2 20
e 2 22
e 2 23
e 2 24
e 2 25
e 2 32
e 2 35
e 2 36
e 2 37
e 2 42
e 2 46
e 2 47
e 2 52
e 2 53
e 2 54
e 2 55
e 2 58
e 2 77
e 2 86
e 2 94
e 2 97
e 3 17
e 3 18
e 3 19
e 3 20
e 3 21
e 3 22
e 3 23
e 3 24
e 3 25
e 3 27
e 3 28
e 3 31
e 3 32
e 3 34
e 3 39
e 3 46
e 3 47
e 3 48
e 3 51
e 3 63
e 3 68
e 3 70
e 3 73
e 3 79
e 3 84
e 3 86
e 3 91
e 4 17
e 4 18
e 4 19
e 4 21
e 4 23
e 4 26
e 4 29
e 4 31
e 4 32
e 4 33
e 4 34
e 4 37
e 4 44
e 4 46
e 4 51
e 4 53
e 4 57
e 4 59
e 4 60
e 4 80
e 4 87
e 4 98
e 5 17
e 5 18
e 5 19
e 5 20
e 5 21
e 5 22
e 5 24
e 5 26
e 5 28
e 5 29
e 5 30
e 5 35
e 5 36
e 5 37
e 5 39
e 5 41
e 5 42
e 5 50
e 5 52
e 5 53
e 5 57
e 5 59
e 5 65
e 5 79
e 5 90
e 5 94
e 5 97
e 6 17
e 6 18
e 6 19
e 6 20
e 6 21
e 6 22
e 6 23
e 6 24
e 6 25
e 6 26
e 6 27
e 6 28
e 6 29
e 6 30
e 6 31
e 6 33
e 6 34
e 6 36
e 6 37
e 6 41
e 6 44
e 6 49
e 6 50
e 6 52
e 6 53
e 6 55
e 6 56
e 6 61
e 6 63
e 6 64
e 6 68
e 6 77
e 6 86
e 6 89
e 6 95
e 6 96
e 6 99
e 6 100
e 7 17
e 7 18
e 7 19
e 7 20
e 7 21
e 7 22
e 7 23
e 7 25
e 7 26
e 7 29
e 7 34
e 7 39
e 7 40
e 7 45
e 7 52
e 7 59
e 7 63
e 7 64
e 7 67
e 7 68
e 7 80
e 7 84
e 7 92
e 8 17
e 8 18
e 8 19
e 8 20
e 8 21
e 8 22
e 8 23
e 8 24
e 8 26
e 8 27
e 8 28
e 8 29
e 8 30
e 8 31
e 8 32
e 8 33
e 8 34
e 8 35
e 8 37
e 8 39
e 8 40
e 8 45
e 8 49
e 8 51
e 8 54
e 8 55
e 8 56
e 8 58
e 8 64
e 8 67
e 8 72
e 8 73
e 8 75
e 8 77
e 8 81
e 8 87
e 8 89
e 8 93
e 9 17
e 9 18
e 9 20
e 9 21
e 9 24
e 9 26
e 9 29
e 9 41
e 9 43
e 9 52
e 9 73
e 9 78
e 9 82
e 9 83
e 9 87
e 9 95
e 9 96
e 10 17
e 10 18
e 10 19
e 10 20
e 10 22
e 10 23
e 10 24
e 10 25
e 10 27
e 10 28
e 10 30
e 10 32
e 10 39
e 10 49
e 10 55
e 10 60
e 10 64
e 10 65
e 10 69
e 10 71
e 10 79
e 10 88
e 10 89
e 11 17
e 11 18
e 11 19
e 11 20
e 11 21
e 11 22
e 11 23
e 11 25
e 11 27
e 11 33
e 11 34
e 11 35
e 11 38
e 11 39
e 11 53
e 11 56
e 11 61
e 11 66
e 11 68
e 11 88
e 11 100
e 12 17
e 12 18
e 12 20
e 12 21
e 12 22
e 12 23
e 12 26
e 12 27
e 12 28
e 12 30
e 12 35
e 12 38
e 12 39
e 12 41
e 12 42
e 12 49
e 12 51
e 12 61
e 12 65
e 12 72
e 12 73
e 12 74
e 12 79
e 12 92
e 12 95
e 13 17
e 13 19
e 13 21
e 13 32
e 13 70
e 13 71
e 14 17
e 14 18
e 14 19
e 14 20
e 14 22
e 14 23
e 14 24
e 14 27
e 14 31
e 14 33
e 14 37
e 14 44
e 14 46
e 14 56
e 14 58
e 14 66
e 14 67
e 14 68
e 14 75
e 14 77
e 14 86
e 14 92
e 15 17
e 15 18
e 15 19
e 15 21
e 15 22
e 15 23
e 15 24
e 15 25
e 15 27
e 15 30
e 15 32
e 15 33
e 15 36
e 15 48
e 15 54
e 15 58
e 15 61
e 15 62
e 15 65
e 15 66
e 15 67
e 15 70
e 15 73
e 15 74
e 15 76
e 15 82
e 15 84
e 15 96
e 15 97
e 16 17
e 16 18
e 16 19
e 16 20
e 16 21
e 16 42
e 16 49
e 16 50
e 16 69
e 16 82
e 16 84
e 16 98
e 16 99
e 17 18
e 17 19
e 17 20
e 17 21
e 17 22
e 17 23
e 17 24
e 17 25
e 17 26
e 17 28
e 17 29
e 17 30
e 17 31
e 17 32
e 17 33
e 17 34
e 17 36
e 17 37
e 17 40
e 17 42
e 17 43
e 17 44
e 17 46
e 17 47
e 17 53
e 17 55
e 17 59
e 17 65
e 17 67
e 17 68
e 17 71
e 17 72
e 17 76
e 17 80
e 17 82
e 17 83
e 17 91
e 17 93
e 17 94
e 17 95
e 17 98
e 18 19
e 18 20
e 18 21
e 18 22
e 18 24
e 18 25
e 18 26
e 18 27
e 18 28
e 18 30
e 18 31
e 18 32
e 18 33
e 18 34
e 18 35
e 18 39
e 18 40
e 18 42
e 18 43
e 18 45
e 18 47
e 18 48
e 18 53
e 18 54
e 18 55
e 18 58
e 18 59
e 18 60
e 18 61
e 18 62
e 18 63
e 18 64
e 18 66
e 18 70
e 18 72
e 18 73
e 18 74
e 18 78
e 18 81
e 18 82
e 18 83
e 18 84
e 18 86
e 18 88
e 18 89
e 18 90
e 18 93
e 18 94
e 18 97
e 18 99
e 19 20
e 19 21
e 19 22
e 19 23
e 19 24
e 19 25
e 19 26
e 19 27
e 19 28
e 19 29
e 19 30
e 19 32
e 19 34
e 19 35
e 19 36
e 19 37
e 19 38
e 19 39
e 19 40
e 19 41
e 19 42
e 19 43
e 19 45
e 19 46
e 19 48
e 19 50
e 19 51
e 19 52
e 19 53
e 19 54
e 19 55
e 19 56
e 19 57
e 19 59
e 19 62
e 19 63
e 19 66
e 19 69
e 19 70
e 19 72
e 19 74
e 19 78
e 19 79
e 19 80
e 19 81
e 19 88
e 19 91
e 19 93
e 19 94
e 19 95
e 19 97
e 19 100
e 20 21
e 20 22
e 20 23
e 20 24
e 20 25
e 20 26
e 20 27
e 20 28
e 20 29
e 20 30
e 20 31
e 20 32
e 20 33
e 20 35
e 20 38
e 20 40
e 20 42
e 20 43
e 20 45
e 20 47
e 20 50
e 20 53
e 20 54
e 20 57
e 20 58
e 20 59
e 20 60
e 20 61
e 20 66
e 20 69
e 20 71
e 20 72
e 20 73
e 20 76
e 20 79
e 20 83
e 20 86
e 20 87
e 20 88
e 20 89
e 20 90
e 20 91
e 20 94
e 20 100
e 21 22
e 21 23
e 21 24
e 21 25
e 21 26
e 21 27
e 21 28
e 21 29
e 21 30
e 21 32
e 21 33
e 21 34
e 21 35
e 21 36
e 21 37
e 21 38
e 21 40
e 21 41
e 21 43
e 21 46
e 21 48
e 21 53
e 21 55
e 21 57
e 21 58
e 21 61
e 21 63
e 21 68
e 21 69
e 21 74
e 21 75
e 21 76
e 21 77
e 21 79
e 21 80
e 21 82
e 21 83
e 21 87
e 21 89
e 21 91
e 21 92
e 21 93
e 21 97
e 21 100
e 22 23
e 22 24
e 22 25
e 22 29
e 22 31
e 22 33
e 22 35
e 22 36
e 22 37
e 22 38
e 22 39
e 22 41
e 22 42
e 22 45
e 22 46
e 22 47
e 22 49
e 22 50
e 22 52
e 22 57
e 22 62
e 22 64
e 22 65
e 22 68
e 22 71
e 22 72
e 22 79
e 22 80
e 22 85
e 22 88
e 22 92
e 22 95
e 23 25
e 23 26
e 23 27
e 23 31
e 23 32
e 23 33
e 23 36
e 23 38
e 23 39
e 23 42
e 23 43
e 23 44
e 23 45
e 23 48
e 23 49
e 23 50
e 23 51
e 23 54
e 23 55
e 23 60
e 23 62
e 23 68
e 23 69
e 23 76
e 23 77
e 23 81
e 23 82
e 23 87
e 23 91
e 23 93
e 23 96
e 24 25
e 24 26
e 24 27
e 24 28
e 24 29
e 24 30
e 24 31
e 24 33
e 24 34
e 24 37
e 24 39
e 24 40
e 24 41
e 24 44
e 24 45
e 24 49
e 24 50
e 24 51
e 24 52
e 24 57
e 24 58
e 24 59
e 24 60
e 24 65
e 24 67
e 24 71
e 24 78
e 24 83
e 24 84
e 24 96
e 24 97
e 24 98
e 24 100
e 25 26
e 25 27
e 25 28
e 25 29
e 25 30
e 25 31
e 25 34
e 25 35
e 25 38
e 25 39
e 25 40
e 25 42
e 25 44
e 25 45
e 25 47
e 25 48
e 25 50
e 25 53
e 25 60
e 25 62
e 25 65
e 25 66
e 25 67
e 25 70
e 25 72
e 25 74
e 25 78
e 25 81
e 25 85
e 26 27
e 26 28
e 26 29
e 26 31
e 26 32
e 26 36
e 26 40
e 26 41
e 26 43
e 26 44
e 26 46
e 26 50
e 26 51
e 26 52
e 26 59
e 26 62
e 26 65
e 26 70
e 26 71
e 26 75
e 26 77
e 26 82
e 26 94
e 26 99
e 27 28
e 27 29
e 27 30
e 27 31
e 27 32
e 27 33
e 27 34
e 27 35
e 27 36
e 27 37
e 27 38
e 27 40
e 27 41
e 27 44
e 27 47
e 27 49
e 27 51
e 27 52
e 27 58
e 27 60
e 27 61
e 27 62
e 27 64
e 27 66
e 27 69
e 27 72
e 27 76
e 27 77
e 27 79
e 27 84
e 27 97
e 28 29
e 28 30
e 28 33
e 28 34
e 28 36
e 28 38
e 28 40
e 28 41
e 28 43
e 28 44
e 28 45
e 28 48
e 28 49
e 28 50
e 28 51
e 28 55
e 28 56
e 28 60
e 28 67
e 28 69
e 28 71
e 28 72
e 28 73
e 28 78
e 28 82
e 28 87
e 28 88
e 28 90
e 28 92
e 28 96
e 29 30
e 29 32
e 29 33
e 29 37
e 29 38
e 29 40
e 29 43
e 29 46
e 29 48
e 29 57
e 29 58
e 29 63
e 29 78
e 29 83
e 29 85
e 29 100
e 30 31
e 30 35
e 30 36
e 30 38
e 30 41
e 30 43
e 30 44
e 30 46
e 30 47
e 30 48
e 30 54
e 30 56
e 30 61
e 30 70
e 30 72
e 30 73
e 30 75
e 30 76
e 31 34
e 31 35
e 31 36
e 31 38
e 31 39
e 31 41
e 31 44
e 31 45
e 31 47
e 31 48
e 31 54
e 31 55
e 31 59
e 31 60
e 31 64
e 31 66
e 31 74
e 31 76
e 31 80
e 31 81
e 31 87
e 31 88
e 31 94
e 32 36
e 32 38
e 32 42
e 32 43
e 32 46
e 32 47
e 32 50
e 32 52
e 32 54
e 32 61
e 32 63
e 32 64
e 32 67
e 32 74
e 32 78
e 32 87
e 33 35
e 33 37
e 33 38
e 33 41
e 33 43
e 33 45
e 33 47
e 33 53
e 33 54
e 33 56
e 33 68
e 33 74
e 33 75
e 33 77
e 33 80
e 33 82
e 33 83
e 33 85
e 33 91
e 33 99
e 34 39
e 34 40
e 34 42
e 34 43
e 34 45
e 34 49
e 34 51
e 34 55
e 34 57
e 34 58
e 34 62
e 34 69
e 34 73
e 34 74
e 34 75
e 34 77
e 34 80
e 34 83
e 34 85
e 34 86
e 34 92
e 34 95
e 34 96
e 35 36
e 35 38
e 35 41
e 35 42
e 35 45
e 35 48
e 35 52
e 35 64
e 35 68
e 35 71
e 35 78
e 35 91
e 35 98
e 36 37
e 36 48
e 36 50
e 36 52
e 36 57
e 36 62
e 36 66
e 36 70
e 36 72
e 36 73
e 36 75
e 36 79
e 36 82
e 36 86
e 36 93
e 37 40
e 37 41
e 37 42
e 37 47
e 37 54
e 37 55
e 37 56
e 37 57
e 37 62
e 37 71
e 37 81
e 37 85
e 37 91
e 37 93
e 37 98
e 37 99
e 38 39
e 38 40
e 38 43
e 38 45
e 38 46
e 38 49
e 38 56
e 38 61
e 38 62
e 38 66
e 38 70
e 38 83
e 38 86
e 38 91
e 38 93
e 38 96
e 38 98
e 39 42
e 39 43
e 39 45
e 39 46
e 39 47
e 39 48
e 39 49
e 39 50
e 39 51
e 39 54
e 39 57
e 39 59
e 39 65
e 39 70
e 39 72
e 39 76
e 39 84
e 39 85
e 39 88
e 39 98
e 40 44
e 40 47
e 40 49
e 40 53
e 40 57
e 40 58
e 40 76
e 40 77
e 40 85
e 40 87
e 40 89
e 40 90
e 41 46
e 41 48
e 41 56
e 41 57
e 41 60
e 41 66
e 41 69
e 41 74
e 41 78
e 41 84
e 41 85
e 41 86
e 41 89
e 41 99
e 42 44
e 42 52
e 42 58
e 42 61
e 42 68
e 42 73
e 42 75
e 42 76
e 42 77
e 42 85
e 42 87
e 42 88
e 42 90
e 42 95
e 42 96
e 42 97
e 42 99
e 43 44
e 43 50
e 43 56
e 43 57
e 43 60
e 43 80
e 43 82
e 43 83
e 43 84
e 43 100
e 44 51
e 44 57
e 44 58
e 44 62
e 44 67
e 44 68
e 44 74
e 44 75
e 44 81
e 44 85
e 44 86
e 44 91
e 44 95
e 44 98
e 45 46
e 45 47
e 45 51
e 45 54
e 45 62
e 45 65
e 45 72
e 45 75
e 45 77
e 45 83
e 45 94
e 46 49
e 46 51
e 46 52
e 46 53
e 46 56
e 46 61
e 46 67
e 46 72
e 46 73
e 46 75
e 46 83
e 46 87
e 46 88
e 46 90
e 46 97
e 47 48
e 47 49
e 47 53
e 47 55
e 47 58
e 47 59
e 47 60
e 47 64
e 47 65
e 47 67
e 47 74
e 47 77
e 47 85
e 47 87
e 47 90
e 47 95
e 47 97
e 48 50
e 48 51
e 48 55
e 48 56
e 48 58
e 48 70
e 48 73
e 48 81
e 48 85
e 48 86
e 48 92
e 48 100
e 49 55
e 49 56
e 49 59
e 49 67
e 49 78
e 49 87
e 49 91
e 49 92
e 49 95
e 49 98
e 50 53
e 50 54
e 50 61
e 50 63
e 50 65
e 50 66
e 50 67
e 50 79
e 50 90
e 50 99
e 50 100
e 51 54
e 51 56
e 51 63
e 51 64
e 51 66
e 51 68
e 51 74
e 51 75
e 51 77
e 51 82
e 51 83
e 51 92
e 51 98
e 52 59
e 52 64
e 52 74
e 52 82
e 52 98
e 53 63
e 53 65
e 53 67
e 53 70
e 53 73
e 53 81
e 53 88
e 53 92
e 53 96
e 54 78
e 54 80
e 54 88
e 54 89
e 54 92
e 55 59
e 55 60
e 55 65
e 55 71
e 55 90
e 55 93
e 55 94
e 55 99
e 56 60
e 56 62
e 56 69
e 56 72
e 56 80
e 56 84
e 56 85
e 56 94
e 57 59
e 57 61
e 57 63
e 57 64
e 57 69
e 57 70
e 57 71
e 57 85
e 57 91
e 57 94
e 57 100
e 58 61
e 58 63
e 58 69
e 58 71
e 58 80
e 58 87
e 58 96
e 58 97
e 59 63
e 59 68
e 59 69
e 59 70
e 59 71
e 59 75
e 59 76
e 59 78
e 59 79
e 59 86
e 60 64
e 60 85
e 61 63
e 61 68
e 61 75
e 61 76
e 61 90
e 61 92
e 61 95
e 61 96
e 61 99
e 62 63
e 62 64
e 62 65
e 62 81
e 62 84
e 62 90
e 62 93
e 62 94
e 63 66
e 63 71
e 63 78
e 63 79
e 63 88
e 63 90
e 64 67
e 64 84
e 65 77
e 65 79
e 65 82
e 65 90
e 65 93
e 65 99
e 66 69
e 66 83
e 66 84
e 66 96
e 66 98
e 67 88
e 67 91
e 67 95
e 67 97
e 67 99
e 68 70
e 68 71
e 68 78
e 68 95
e 68 99
e 68 100
e 69 93
e 70 73
e 70 88
e 70 96
e 71 76
e 71 79
e 71 89
e 72 83
e 72 89
e 73 75
e 73 76
e 73 80
e 73 81
e 73 86
e 73 92
e 73 100
e 74 76
e 74 81
e 74 86
e 74 94
e 75 80
e 75 81
e 75 93
e 75 94
e 76 78
e 76 86
e 76 89
e 76 90
e 76 92
e 76 97
e 77 81
e 77 89
e 77 94
e 78 82
e 78 89
e 79 80
e 79 87
e 79 100
e 80 81
e 80 84
e 81 84
e 81 98
e 82 96
e 82 97
e 83 90
e 83 93
e 83 95
e 85 89
e 85 91
e 85 92
e 85 99
e 86 95
e 86 96
e 90 97
e 92 93
e 92 99
e 94 100
e 95 98
e 99 100
